%nprocshared=8
%chk=F:\Baensch\GaussianJobs_HAc\HAc_HAc_opt_OPLSAA_Results20230713_BSSE_OPT.chk
# opt=(MaxCycles=999) wb97xd/6-311++g(d,p) geom=connectivity counterpoise=2

HAc_HAc_opt_OPLSAA_Results20230713_BSSE_OPT

0 1 0 1 0 1
 C(Fragment=1)      0.55542800    0.01319500    0.11300000
 O(Fragment=1)      1.33661600    0.12284900    1.05574000
 O(Fragment=1)      0.95305600   -0.13667100   -1.17658600
 H(Fragment=1)      1.90791000   -0.14395900   -1.23885800
 C(Fragment=1)     -0.95735800    0.02924700    0.25214800
 H(Fragment=1)     -1.38128400    0.85324400   -0.32146500
 H(Fragment=1)     -1.38103300   -0.90548400   -0.11459600
 H(Fragment=1)     -1.24306700    0.15203800    1.29683500
 C(Fragment=2)      4.41456000   -0.01307500   -0.11305500
 O(Fragment=2)      3.63345400   -0.12249900   -1.05589600
 O(Fragment=2)      4.01685700    0.13658300    1.17656700
 H(Fragment=2)      3.06200000    0.14400400    1.23907300
 C(Fragment=2)      5.92737200   -0.02930500   -0.25214500
 H(Fragment=2)      6.35149200    0.90414600    0.11734500
 H(Fragment=2)      6.35094600   -0.85513800    0.31908400
 H(Fragment=2)      6.21305000   -0.14917300   -1.29718900

 1 2 2.0 3 2.0 5 2.0
 2
 3 4 1.0
 4
 5 6 1.0 7 1.0 8 1.0
 6
 7
 8
 9 10 2.0 11 2.0 13 2.0
 10
 11 12 1.0
 12
 13 14 1.0 15 1.0 16 1.0
 14
 15
 16

