%nprocshared=8
%chk=F:\Baensch\GaussianJobs_HAc\HAc_HAc_opt_AMOEBA09_BSSE_SP.chk
# wb97xd/6-311++g(d,p) geom=connectivity counterpoise=2

HAc_HAc_opt_AMOEBA09_BSSE_SP

0 1 0 1 0 1
 C(Fragment=1)      0.55612800    0.02324900    0.19862600
 O(Fragment=1)      1.29739400    0.13714100    1.17872000
 O(Fragment=1)      1.00554400   -0.12308900   -1.06102500
 H(Fragment=1)      1.98462200   -0.12328200   -1.06229700
 C(Fragment=1)     -0.95234100    0.02892700    0.24976400
 H(Fragment=1)     -1.35657100    0.86526600   -0.36096200
 H(Fragment=1)     -1.35613500   -0.92437400   -0.15523400
 H(Fragment=1)     -1.30721300    0.14920800    1.29605500
 C(Fragment=2)      4.47385500   -0.02297700   -0.19864300
 O(Fragment=2)      3.73249500   -0.13661600   -1.17870200
 O(Fragment=2)      4.02450400    0.12325100    1.06102600
 H(Fragment=2)      3.04542400    0.12354800    1.06226200
 C(Fragment=2)      5.98233900   -0.02916000   -0.24974300
 H(Fragment=2)      6.38647300    0.92501000    0.15288900
 H(Fragment=2)      6.38634200   -0.86414500    0.36301800
 H(Fragment=2)      6.33714200   -0.15195700   -1.29575200

 1 2 2.0 3 2.0 5 2.0
 2
 3 4 1.0
 4
 5 6 1.0 7 1.0 8 1.0
 6
 7
 8
 9 10 2.0 11 2.0 13 2.0
 10
 11 12 1.0
 12
 13 14 1.0 15 1.0 16 1.0
 14
 15
 16

