%nprocshared=8
%chk=D:\Zielesny\G16W\HAc_HAc_star_MMFF_BSSE_OPT.chk
# opt=(MaxCycles=999) wb97xd/6-311++g(d,p) geom=connectivity counterpoise=2

HAc_HAc_star_MMFF_BSSE_OPT

0 1 0 1 0 1
 C(Fragment=1)      0.53696600    0.17737500   -0.06212200
 O(Fragment=1)      1.36101200    0.54131000   -0.88301900
 O(Fragment=1)      0.84473400    0.10913600    1.24618700
 H(Fragment=1)      1.78012000    0.39939400    1.28609900
 C(Fragment=1)     -0.87177000   -0.23250800   -0.33784500
 H(Fragment=1)     -1.02379100   -1.26886400   -0.02643900
 H(Fragment=1)     -1.56087600    0.43237200    0.18863900
 H(Fragment=1)     -1.06639500   -0.15821500   -1.41149900
 C(Fragment=2)      4.27303400    0.16458200    0.09074100
 O(Fragment=2)      3.44898800    0.38700800    0.96071000
 O(Fragment=2)      3.96526600    0.31475500   -1.21071100
 H(Fragment=2)      3.02988000    0.60760900   -1.20182300
 C(Fragment=2)      5.68177000   -0.28542900    0.29449900
 H(Fragment=2)      5.83379100   -1.25560800   -0.18483500
 H(Fragment=2)      6.37087600    0.45771200   -0.11414700
 H(Fragment=2)      5.87639500   -0.39062900    1.36556600

 1 2 2.0 3 2.0 5 2.0
 2
 3 4 1.0
 4
 5 6 1.0 7 1.0 8 1.0
 6
 7
 8
 9 10 2.0 11 2.0 13 2.0
 10
 11 12 1.0
 12
 13 14 1.0 15 1.0 16 1.0
 14
 15
 16