%nprocshared=8
%chk=D:\Zielesny\G16W\HAc_HAc_opt_MMFF_BSSE_SP.chk
# wb97xd/6-311++g(d,p) geom=connectivity counterpoise=2

HAc_HAc_opt_MMFF_BSSE_SP

0 1 0 1 0 1
 C(Fragment=1)      0.51226000    0.01010400   -0.12131400
 O(Fragment=1)      1.35910500    0.08371000   -1.00071200
 O(Fragment=1)      0.84049700   -0.09888400    1.17928400
 H(Fragment=1)      1.83256100   -0.10310200    1.22786700
 C(Fragment=1)     -0.96752200    0.02711000   -0.32519200
 H(Fragment=1)     -1.40282800   -0.90584200    0.04124700
 H(Fragment=1)     -1.40313000    0.88480900    0.19324200
 H(Fragment=1)     -1.18444500    0.11779400   -1.39332400
 C(Fragment=2)      4.29775100   -0.00998100    0.12128000
 O(Fragment=2)      3.45084800   -0.08361800    1.00062700
 O(Fragment=2)      3.96956900    0.09883600   -1.17934700
 H(Fragment=2)      2.97750100    0.10293700   -1.22802000
 C(Fragment=2)      5.77751800   -0.02716100    0.32526800
 H(Fragment=2)      6.21273200   -0.88647200   -0.19082600
 H(Fragment=2)      6.21321600    0.90459300   -0.04376600
 H(Fragment=2)      5.99436600   -0.11483200    1.39368700

 1 2 2.0 3 2.0 5 2.0
 2
 3 4 1.0
 4
 5 6 1.0 7 1.0 8 1.0
 6
 7
 8
 9 10 2.0 11 2.0 13 2.0
 10
 11 12 1.0
 12
 13 14 1.0 15 1.0 16 1.0
 14
 15
 16