%nprocshared=8
%chk=F:\Baensch\GaussianJobs_HAc\HAc_HAc_star_AMOEBA09_BSSE_SP.chk
# wb97xd/6-311++g(d,p) geom=connectivity counterpoise=2

HAc_HAc_star_AMOEBA09_BSSE_SP

0 1 0 1 0 1
 C(Fragment=1)      0.55773300    0.15479500    0.11958200
 O(Fragment=1)      1.30485900    0.51968400    1.01817000
 O(Fragment=1)      0.98193600   -0.01788200   -1.14978200
 H(Fragment=1)      1.93192600    0.19499100   -1.18345000
 C(Fragment=1)     -0.91160900   -0.15370000    0.26952600
 H(Fragment=1)     -1.51739500    0.51163300   -0.38301700
 H(Fragment=1)     -1.11871000   -1.20806100   -0.01488000
 H(Fragment=1)     -1.22873900   -0.00146000    1.32385200
 C(Fragment=2)      4.47226700    0.12325800   -0.15188400
 O(Fragment=2)      3.72514100    0.27242400   -1.11019200
 O(Fragment=2)      4.04806400    0.24618600    1.12326000
 H(Fragment=2)      3.09807400    0.46110800    1.10722800
 C(Fragment=2)      5.94160900   -0.21139700   -0.22711100
 H(Fragment=2)      6.54739500    0.58581500    0.25552200
 H(Fragment=2)      6.14871000   -1.17247500    0.29143600
 H(Fragment=2)      6.25873900   -0.30491900   -1.28825900

 1 2 2.0 3 2.0 5 2.0
 2
 3 4 1.0
 4
 5 6 1.0 7 1.0 8 1.0
 6
 7
 8
 9 10 2.0 11 2.0 13 2.0
 10
 11 12 1.0
 12
 13 14 1.0 15 1.0 16 1.0
 14
 15
 16

