%nprocshared=8
%chk=F:\Baensch\GaussianJobs_HAc\HAc_HAc_star_OPLSAA_Results20230713_BSSE_SP.chk
# wb97xd/6-311++g(d,p) geom=connectivity counterpoise=2

HAc_HAc_star_OPLSAA_Results20230713_BSSE_SP

0 1 0 1 0 1
 C(Fragment=1)      0.56277400    0.15603900    0.11493000
 O(Fragment=1)      1.29478100    0.51952000    1.02772700
 O(Fragment=1)      0.99691100   -0.01015200   -1.15907400
 H(Fragment=1)      1.91646000    0.19906900   -1.18878900
 C(Fragment=1)     -0.91586100   -0.15757300    0.27120100
 H(Fragment=1)     -1.51182900    0.49782700   -0.36353400
 H(Fragment=1)     -1.11593000   -1.19173900   -0.00824100
 H(Fragment=1)     -1.22730600   -0.01299100    1.30578100
 C(Fragment=2)      4.40722600    0.12553500   -0.14764100
 O(Fragment=2)      3.67521900    0.27007400   -1.11945700
 O(Fragment=2)      3.97308900    0.25584100    1.13053200
 H(Fragment=2)      3.05354000    0.46630100    1.11149000
 C(Fragment=2)      5.88586100   -0.21555000   -0.22785400
 H(Fragment=2)      6.48182900    0.56791000    0.23972400
 H(Fragment=2)      6.08593000   -1.15811000    0.28123200
 H(Fragment=2)      6.19730600   -0.31200000   -1.26802500

 1 2 2.0 3 2.0 5 2.0
 2
 3 4 1.0
 4
 5 6 1.0 7 1.0 8 1.0
 6
 7
 8
 9 10 2.0 11 2.0 13 2.0
 10
 11 12 1.0
 12
 13 14 1.0 15 1.0 16 1.0
 14
 15
 16

