%nprocshared=8
%chk=D:\Zielesny\G16W\Me_Me_opt_AMOEBA09_BSSE_OPT.chk
# opt=(MaxCycles=999) wb97xd/6-311++g(d,p) geom=connectivity counterpoise=2

Me_Me_opt_AMOEBA09_BSSE_OPT

0 1 0 1 0 1
 C(Fragment=1)     -0.00030400    0.00000000    0.00000000
 H(Fragment=1)      0.62575300    0.62537000   -0.62537000
 H(Fragment=1)      0.62575300   -0.62537000    0.62537000
 H(Fragment=1)     -0.62567600    0.62562500    0.62562500
 H(Fragment=1)     -0.62567600   -0.62562500   -0.62562500
 C(Fragment=2)      3.74030400    0.00000000    0.00000000
 H(Fragment=2)      3.11424700   -0.62537000   -0.62537000
 H(Fragment=2)      3.11424700    0.62537000    0.62537000
 H(Fragment=2)      4.36567600   -0.62562500    0.62562500
 H(Fragment=2)      4.36567600    0.62562500   -0.62562500

 1 2 1.0 3 1.0 4 1.0 5 1.0
 2
 3
 4
 5
 6 7 1.0 8 1.0 9 1.0 10 1.0
 7
 8
 9
 10