%nprocshared=8
%chk=D:\Zielesny\G16W\Me_Me_opt_OPLSAA_ TIP3P_BSSE_OPT.chk
# opt=(MaxCycles=999) wb97xd/6-311++g(d,p) geom=connectivity counterpoise=2

Me_Me_opt_OPLSAA_ TIP3P_BSSE_OPT

0 1 0 1 0 1
 C(Fragment=1)     -0.00059700   -0.00002100   -0.00001500
 H(Fragment=1)      0.44762500   -0.65512800   -0.74702700
 H(Fragment=1)      0.34599000   -0.29079100    0.99165800
 H(Fragment=1)      0.29310400    1.03063500   -0.19890500
 H(Fragment=1)     -1.08628000   -0.08477600   -0.04579800
 C(Fragment=2)      3.57059700    0.00001300    0.00002200
 H(Fragment=2)      3.12237500    0.70004300    0.70511100
 H(Fragment=2)      3.22401000   -1.00935900    0.22167400
 H(Fragment=2)      3.27689600    0.26954400   -1.01445400
 H(Fragment=2)      4.65628000    0.03984000    0.08773400

 1 2 1.0 3 1.0 4 1.0 5 1.0
 2
 3
 4
 5
 6 7 1.0 8 1.0 9 1.0 10 1.0
 7
 8
 9
 10