%nprocshared=8
%chk=E:\Zielesny\G09W\H2O_SP.chk
# wb97xd/6-31+g(d) geom=connectivity

H2O_SP

0 1
 O                  0.00000000    0.00000000    0.11044000
 H                  0.00000000    0.77755300   -0.44822000
 H                  0.00000000   -0.77755300   -0.44822000

 1 2 1.0 3 1.0
 2
 3

