%nprocshared=8
%chk=E:\Zielesny\G09W\MeOH_MeOH_SP_BSSE.chk
# wb97xd/6-31+g(d) geom=connectivity counterpoise=2

MeOH_MeOH_SP_BSSE

0 1 0 1 0 1
 C(Fragment=1)     -0.16600000    0.32000000    0.05200000
 H(Fragment=1)      0.21300000    1.35600000   -0.08700000
 H(Fragment=1)     -0.49500000    0.19500000    1.10800000
 H(Fragment=1)     -1.03500000    0.15900000   -0.62400000
 O(Fragment=1)      0.86100000   -0.60700000   -0.24800000
 H(Fragment=1)      0.48900000   -1.49200000   -0.11300000
 C(Fragment=2)      4.34100000    0.09600000   -0.16500000
 H(Fragment=2)      5.37300000    0.25600000    0.21900000
 H(Fragment=2)      3.99600000    1.02200000   -0.67600000
 H(Fragment=2)      4.35300000   -0.74100000   -0.89800000
 O(Fragment=2)      3.47700000   -0.21400000    0.90700000
 H(Fragment=2)      2.59500000   -0.34900000    0.52400000

 1 2 1.0 3 1.0 4 1.0 5 1.0
 2
 3
 4
 5 6 1.0
 6
 7 8 1.0 9 1.0 10 1.0 11 1.0
 8
 9
 10
 11 12 1.0
 12

