%nprocshared=8
%chk=E:\Zielesny\G09W\MeOH_SP.chk
# wb97xd/6-31+g(d) geom=connectivity

MeOH_SP

0 1
C	0.067981	0.641569	0.
H	1.123334	0.992458	0.
H	-0.442794	1.0348	0.907107
H	-0.442794	1.0348	-0.907107
O	0.038201	-0.76984	0.
H	-0.890927	-1.039787	0.

 1 2 1.0 3 1.0 4 1.0 5 1.0
 2
 3
 4
 5 6 1.0
 6

