%nprocshared=8
%chk=E:\Zielesny\G09W\Me2O_Me2O_SP_BSSE.chk
# wb97xd/6-31+g(d) geom=connectivity counterpoise=2

Me2O_Me2O_SP_BSSE

0 1 0 1 0 1
 O(Fragment=1)      0.05900000    0.03700000    0.81600000
 C(Fragment=1)      0.08600000   -1.18700000    0.09600000
 H(Fragment=1)      1.00400000   -1.25700000   -0.53200000
 H(Fragment=1)      0.09500000   -2.03100000    0.82100000
 H(Fragment=1)     -0.81800000   -1.29000000   -0.54700000
 C(Fragment=1)      0.04400000    1.15700000   -0.05800000
 H(Fragment=1)      0.02000000    2.08800000    0.55000000
 H(Fragment=1)      0.96200000    1.17800000   -0.68900000
 H(Fragment=1)     -0.86000000    1.14100000   -0.70800000
 O(Fragment=2)      3.26900000    0.00600000   -0.33800000
 C(Fragment=2)      4.49600000   -0.05100000   -1.04900000
 H(Fragment=2)      5.08200000   -0.95400000   -0.76000000
 H(Fragment=2)      4.27900000   -0.11300000   -2.13800000
 H(Fragment=2)      5.10400000    0.86500000   -0.86800000
 C(Fragment=2)      3.48600000    0.08600000    1.06400000
 H(Fragment=2)      2.50300000    0.12900000    1.58200000
 H(Fragment=2)      4.03300000   -0.81300000    1.43300000
 H(Fragment=2)      4.05700000    1.00700000    1.32600000

 1 2 1.0 6 1.0
 2 3 1.0 4 1.0 5 1.0
 3
 4
 5
 6 7 1.0 8 1.0 9 1.0
 7
 8
 9
 10 11 1.0 15 1.0
 11 12 1.0 13 1.0 14 1.0
 12
 13
 14
 15 16 1.0 17 1.0 18 1.0
 16
 17
 18

