%nprocshared=8
%chk=E:\Zielesny\G09W\Me2O_H2O_SP_BSSE.chk
# wb97xd/6-31+g(d) geom=connectivity counterpoise=2

Me2O_H2O_SP_BSSE

0 1 0 1 0 1
 O(Fragment=1)      0.71579300   -0.04220200   -0.43683800
 C(Fragment=1)      0.00935900   -1.15500200    0.09947900
 H(Fragment=1)     -1.01655400   -1.21894500   -0.33081500
 H(Fragment=1)      0.55469000   -2.08843800   -0.16268300
 H(Fragment=1)     -0.05152700   -1.08876300    1.21025700
 C(Fragment=1)      0.05548900    1.18045100   -0.12998600
 H(Fragment=1)      0.63736800    2.02320900   -0.56426000
 H(Fragment=1)     -0.96768700    1.20056600   -0.57092200
 H(Fragment=1)     -0.00630000    1.33277800    0.97224200
 O(Fragment=2)      3.45464200   -0.01538800    0.33050700
 H(Fragment=2)      4.02927300   -0.09816100   -0.42958400
 H(Fragment=2)      2.54545400   -0.03010500    0.01260300

 1 2 1.0 6 1.0
 2 3 1.0 4 1.0 5 1.0
 3
 4
 5
 6 7 1.0 8 1.0 9 1.0
 7
 8
 9
 10 11 1.0 12 1.0
 11
 12

