%chk=D:\Data\Software Development\MIPET\Info und Diskussion\2020-12 Me2O vs MeOH with H2O\MeOH_H2O_OPT.chk
# opt wb97xd/6-31+g(d) geom=connectivity

Title Card Required

0 1
 C                 -0.15661100    0.33404500    0.00807200
 H                  0.12024900    1.34531600    0.37955200
 H                 -1.11823500    0.02712400    0.47650000
 H                 -0.28458700    0.37926500   -1.09657900
 O                  0.86282900   -0.58986600    0.34041800
 H                  0.58159100   -1.45238100   -0.00182200
 O                  3.55379000    0.03688600   -0.39441500
 H                  2.66547600   -0.16607700   -0.08254000
 H                  4.12549800    0.08568700    0.37081500

 1 2 1.0 3 1.0 4 1.0 5 1.0
 2
 3
 4
 5 6 1.0
 6
 7 8 1.0 9 1.0
 8
 9

