%nprocshared=8
%chk=D:\Zielesny\G16W\Me_Me_opt_MMFF_BSSE_OPT.chk
# opt=(MaxCycles=999) wb97xd/6-311++g(d,p) geom=connectivity counterpoise=2

Me_Me_opt_MMFF_BSSE_OPT

0 1 0 1 0 1
 C(Fragment=1)      0.00290800   -0.01708000   -0.01830800
 H(Fragment=1)      0.37772500   -0.69885200   -0.78486300
 H(Fragment=1)      0.37108600   -0.33244000    0.96042600
 H(Fragment=1)      0.35299400    0.99571000   -0.22955000
 H(Fragment=1)     -1.08912800   -0.03272100   -0.01919500
 C(Fragment=2)      3.73709200    0.01708600    0.01830300
 H(Fragment=2)      3.36227500    0.73477300    0.75134000
 H(Fragment=2)      3.36891300   -0.98107400    0.26537900
 H(Fragment=2)      3.38700700    0.29770700   -0.97749800
 H(Fragment=2)      4.82912800    0.01689100    0.03396800

 1 2 1.0 3 1.0 4 1.0 5 1.0
 2
 3
 4
 5
 6 7 1.0 8 1.0 9 1.0 10 1.0
 7
 8
 9
 10