%nprocshared=8
%chk=D:\Zielesny\G16W\Me_Me_star_MMFF_BSSE_OPT.chk
# opt=(MaxCycles=999) wb97xd/6-311++g(d,p) geom=connectivity counterpoise=2

Me_Me_star_MMFF_BSSE_OPT

0 1 0 1 0 1
 C(Fragment=1)      0.00000000    0.00000000    0.00000000
 H(Fragment=1)      0.44832500   -0.65667700   -0.74878400
 H(Fragment=1)      0.34633200   -0.29144000    0.99398900
 H(Fragment=1)      0.29326900    1.03303300   -0.19933200
 H(Fragment=1)     -1.08792600   -0.08491700   -0.04587200
 C(Fragment=2)      3.74000000    0.00000000    0.00000000
 H(Fragment=2)      3.29167500    0.70168900    0.70677700
 H(Fragment=2)      3.39366800   -1.01172900    0.22216000
 H(Fragment=2)      3.44673100    0.27013600   -1.01681700
 H(Fragment=2)      4.82792600    0.03990400    0.08788000

 1 2 1.0 3 1.0 4 1.0 5 1.0
 2
 3
 4
 5
 6 7 1.0 8 1.0 9 1.0 10 1.0
 7
 8
 9
 10