%nprocshared=8
%chk=E:\Zielesny\G09W\Me2O_MeOH_SP_BSSE.chk
# wb97xd/6-311++g(d,p) geom=connectivity counterpoise=2

Me2O_MeOH_SP_BSSE

0 1 0 1 0 1
 O(Fragment=1)      0.74900000   -0.06300000   -0.28800000
 C(Fragment=1)     -0.07200000   -1.02900000    0.35800000
 H(Fragment=1)     -0.98300000   -1.24400000   -0.24600000
 H(Fragment=1)      0.50300000   -1.97500000    0.46800000
 H(Fragment=1)     -0.36700000   -0.68300000    1.37500000
 C(Fragment=1)      0.05900000    1.17000000   -0.45300000
 H(Fragment=1)      0.73400000    1.89500000   -0.96000000
 H(Fragment=1)     -0.84700000    1.03600000   -1.08700000
 H(Fragment=1)     -0.23100000    1.59700000    0.53400000
 C(Fragment=2)      4.26700000   -0.18300000   -0.08200000
 H(Fragment=2)      5.30200000   -0.09700000    0.31500000
 H(Fragment=2)      4.17000000    0.45900000   -0.98500000
 H(Fragment=2)      4.07400000   -1.24200000   -0.36700000
 O(Fragment=2)      3.34400000    0.22700000    0.90300000
 H(Fragment=2)      2.45900000    0.13400000    0.51300000

 1 2 1.0 6 1.0
 2 3 1.0 4 1.0 5 1.0
 3
 4
 5
 6 7 1.0 8 1.0 9 1.0
 7
 8
 9
 10 11 1.0 12 1.0 13 1.0 14 1.0
 11
 12
 13
 14 15 1.0
 15

